backend/data/formal_work/fv_ada4dfec/assertions/fv_ada4dfec__03_ap_fifo_empty_prev_read/fv_ada4dfec__03_ap_fifo_empty_prev_read_bmc/model/design_smt2.smt2
; SMT-LIBv2 description generated by Yosys 0.63+184 (git sha1 240439bdb-dirty, aarch64-apple-darwin23.5-clang++ 18.1.8 -fPIC -O3)
; yosys-smt2-module fifo_sva
(declare-sort |fifo_sva_s| 0)
(declare-fun |fifo_sva_is| (|fifo_sva_s|) Bool)
; yosys-smt2-witness {"offset": 0, "path": ["$auto$async2sync.cc:116:execute$290"], "smtname": 0, "smtoffset": 0, "type": "reg", "width": 1}
(declare-fun |fifo_sva#0| (|fifo_sva_s|) (_ BitVec 1)) ; $auto$async2sync.cc:116:execute$290
; yosys-smt2-register $auto$async2sync.cc:116:execute$290 1
(define-fun |fifo_sva_n $auto$async2sync.cc:116:execute$290| ((state |fifo_sva_s|)) Bool (= ((_ extract 0 0) (|fifo_sva#0| state)) #b1))
; yosys-smt2-witness {"offset": 0, "path": ["$auto$async2sync.cc:107:execute$286"], "smtname": 1, "smtoffset": 0, "type": "reg", "width": 1}
(declare-fun |fifo_sva#1| (|fifo_sva_s|) (_ BitVec 1)) ; $auto$async2sync.cc:107:execute$286
; yosys-smt2-register $auto$async2sync.cc:107:execute$286 1
(define-fun |fifo_sva_n $auto$async2sync.cc:107:execute$286| ((state |fifo_sva_s|)) Bool (= ((_ extract 0 0) (|fifo_sva#1| state)) #b1))
; yosys-smt2-anyinit fifo_sva#2 1 fifo_sva_monitor.sv:46.5-54.8
; yosys-smt2-witness {"offset": 0, "path": ["\\_va_ap_fifo_empty_prev_read_triggered_2"], "smtname": 2, "smtoffset": 0, "type": "init", "width": 1}
(declare-fun |fifo_sva#2| (|fifo_sva_s|) (_ BitVec 1)) ; \_va_ap_fifo_empty_prev_read_triggered_2
; yosys-smt2-register _va_ap_fifo_empty_prev_read_triggered_2 1
; yosys-smt2-wire _va_ap_fifo_empty_prev_read_triggered_2 1
(define-fun |fifo_sva_n _va_ap_fifo_empty_prev_read_triggered_2| ((state |fifo_sva_s|)) Bool (= ((_ extract 0 0) (|fifo_sva#2| state)) #b1))
(declare-fun |fifo_sva#3| (|fifo_sva_s|) Bool) ; \empty
(declare-fun |fifo_sva#4| (|fifo_sva_s|) Bool) ; \full
(define-fun |fifo_sva#5| ((state |fifo_sva_s|)) Bool (not (or  (|fifo_sva#4| state) false))) ; $logic_not$fifo_sva_monitor.sv:50$25_Y
(define-fun |fifo_sva#6| ((state |fifo_sva_s|)) Bool (or  (|fifo_sva#3| state) false  (|fifo_sva#5| state) false)) ; $logic_or$fifo_sva_monitor.sv:50$26_Y
(define-fun |fifo_sva#7| ((state |fifo_sva_s|)) Bool (not (or  (|fifo_sva#6| state) false))) ; $logic_not$fifo_sva_monitor.sv:50$27_Y
(define-fun |fifo_sva#8| ((state |fifo_sva_s|)) Bool (and (or  (= ((_ extract 0 0) (|fifo_sva#2| state)) #b1) false) (or  (|fifo_sva#7| state) false))) ; $logic_and$fifo_sva_monitor.sv:50$28_Y
(define-fun |fifo_sva#9| ((state |fifo_sva_s|)) (_ BitVec 1) (ite (|fifo_sva#8| state) #b1 #b0)) ; $procmux$190_Y
(declare-fun |fifo_sva#10| (|fifo_sva_s|) (_ BitVec 1)) ; \reset_n
(define-fun |fifo_sva#11| ((state |fifo_sva_s|)) (_ BitVec 1) (ite (= ((_ extract 0 0) (|fifo_sva#10| state)) #b1) (|fifo_sva#9| state) #b0)) ; \ap_fifo_empty_prev_read_EN
; yosys-smt2-wire ap_fifo_empty_prev_read_EN 1
(define-fun |fifo_sva_n ap_fifo_empty_prev_read_EN| ((state |fifo_sva_s|)) Bool (= ((_ extract 0 0) (|fifo_sva#11| state)) #b1))
(declare-fun |fifo_sva#12| (|fifo_sva_s|) Bool) ; \clk
; yosys-smt2-input clk 1
; yosys-smt2-wire clk 1
; yosys-smt2-clock clk posedge
; yosys-smt2-witness {"offset": 0, "path": ["\\clk"], "smtname": "clk", "smtoffset": 0, "type": "posedge", "width": 1}
; yosys-smt2-witness {"offset": 0, "path": ["\\clk"], "smtname": "clk", "smtoffset": 0, "type": "input", "width": 1}
(define-fun |fifo_sva_n clk| ((state |fifo_sva_s|)) Bool (|fifo_sva#12| state))
; yosys-smt2-input empty 1
; yosys-smt2-wire empty 1
; yosys-smt2-witness {"offset": 0, "path": ["\\empty"], "smtname": "empty", "smtoffset": 0, "type": "input", "width": 1}
(define-fun |fifo_sva_n empty| ((state |fifo_sva_s|)) Bool (|fifo_sva#3| state))
; yosys-smt2-input full 1
; yosys-smt2-wire full 1
; yosys-smt2-witness {"offset": 0, "path": ["\\full"], "smtname": "full", "smtoffset": 0, "type": "input", "width": 1}
(define-fun |fifo_sva_n full| ((state |fifo_sva_s|)) Bool (|fifo_sva#4| state))
(declare-fun |fifo_sva#13| (|fifo_sva_s|) Bool) ; \rd_en
; yosys-smt2-input rd_en 1
; yosys-smt2-wire rd_en 1
; yosys-smt2-witness {"offset": 0, "path": ["\\rd_en"], "smtname": "rd_en", "smtoffset": 0, "type": "input", "width": 1}
(define-fun |fifo_sva_n rd_en| ((state |fifo_sva_s|)) Bool (|fifo_sva#13| state))
; yosys-smt2-input reset_n 1
; yosys-smt2-wire reset_n 1
; yosys-smt2-witness {"offset": 0, "path": ["\\reset_n"], "smtname": "reset_n", "smtoffset": 0, "type": "input", "width": 1}
(define-fun |fifo_sva_n reset_n| ((state |fifo_sva_s|)) Bool (= ((_ extract 0 0) (|fifo_sva#10| state)) #b1))
(declare-fun |fifo_sva#14| (|fifo_sva_s|) Bool) ; \wr_en
; yosys-smt2-input wr_en 1
; yosys-smt2-wire wr_en 1
; yosys-smt2-witness {"offset": 0, "path": ["\\wr_en"], "smtname": "wr_en", "smtoffset": 0, "type": "input", "width": 1}
(define-fun |fifo_sva_n wr_en| ((state |fifo_sva_s|)) Bool (|fifo_sva#14| state))
(define-fun |fifo_sva#15| ((state |fifo_sva_s|)) (_ BitVec 1) (bvnot (ite (|fifo_sva#12| state) #b1 #b0))) ; $auto$rtlil.cc:3255:Not$318
; yosys-smt2-assume 0 $auto$formalff.cc:987:execute$319
(define-fun |fifo_sva_u 0| ((state |fifo_sva_s|)) Bool (or (= ((_ extract 0 0) (|fifo_sva#15| state)) #b1) (not true))) ; $auto$formalff.cc:987:execute$319
; yosys-smt2-assert 0 ap_fifo_empty_prev_read
(define-fun |fifo_sva_a 0| ((state |fifo_sva_s|)) Bool (or (= ((_ extract 0 0) (|fifo_sva#0| state)) #b1) (not (= ((_ extract 0 0) (|fifo_sva#1| state)) #b1)))) ; ap_fifo_empty_prev_read
(define-fun |fifo_sva#16| ((state |fifo_sva_s|)) Bool (not (or  (|fifo_sva#3| state) false))) ; $logic_not$fifo_sva_monitor.sv:52$31_Y
(define-fun |fifo_sva#17| ((state |fifo_sva_s|)) Bool (and (or  (|fifo_sva#13| state) false) (or  (|fifo_sva#16| state) false))) ; $logic_and$fifo_sva_monitor.sv:52$32_Y
(define-fun |fifo_sva#18| ((state |fifo_sva_s|)) Bool (not (or  (|fifo_sva#14| state) false))) ; $logic_not$fifo_sva_monitor.sv:52$33_Y
(define-fun |fifo_sva#19| ((state |fifo_sva_s|)) Bool (and (or  (|fifo_sva#17| state) false) (or  (|fifo_sva#18| state) false))) ; $logic_and$fifo_sva_monitor.sv:52$34_Y
(define-fun |fifo_sva#20| ((state |fifo_sva_s|)) (_ BitVec 1) (ite (= ((_ extract 0 0) (|fifo_sva#10| state)) #b1) (ite (|fifo_sva#19| state) #b1 #b0) #b0)) ; $0\_va_ap_fifo_empty_prev_read_triggered_2[0:0]
(define-fun |fifo_sva_a| ((state |fifo_sva_s|)) Bool 
  (|fifo_sva_a 0| state)
)
(define-fun |fifo_sva_u| ((state |fifo_sva_s|)) Bool 
  (|fifo_sva_u 0| state)
)
(define-fun |fifo_sva_i| ((state |fifo_sva_s|)) Bool (and
  (= (= ((_ extract 0 0) (|fifo_sva#0| state)) #b1) true) ; $auto$async2sync.cc:116:execute$290
  (= (= ((_ extract 0 0) (|fifo_sva#1| state)) #b1) false) ; $auto$async2sync.cc:107:execute$286
))
(define-fun |fifo_sva_h| ((state |fifo_sva_s|)) Bool true)
(define-fun |fifo_sva_t| ((state |fifo_sva_s|) (next_state |fifo_sva_s|)) Bool (and
  (= (|fifo_sva#20| state) (|fifo_sva#2| next_state)) ; $procdff$277 \_va_ap_fifo_empty_prev_read_triggered_2
  (= (|fifo_sva#11| state) (|fifo_sva#1| next_state)) ; $auto$async2sync.cc:110:execute$288 $auto$async2sync.cc:107:execute$286
  (= #b0 (|fifo_sva#0| next_state)) ; $auto$async2sync.cc:118:execute$291 $auto$async2sync.cc:116:execute$290
)) ; end of module fifo_sva
; yosys-smt2-module fifo
(declare-sort |fifo_s| 0)
(declare-fun |fifo_is| (|fifo_s|) Bool)
; yosys-smt2-anyseq fifo#0 8 $auto$setundef.cc:550:execute$312
; yosys-smt2-witness {"offset": 0, "path": ["\\_witness_", "\\anyseq_auto_setundef_cc_550_execute_312"], "smtname": 0, "smtoffset": 0, "type": "seq", "width": 8}
(declare-fun |fifo#0| (|fifo_s|) (_ BitVec 8)) ; \_witness_.anyseq_auto_setundef_cc_550_execute_312
; yosys-smt2-wire _witness_.anyseq_auto_setundef_cc_550_execute_312 8
(define-fun |fifo_n _witness_.anyseq_auto_setundef_cc_550_execute_312| ((state |fifo_s|)) (_ BitVec 8) (|fifo#0| state))
; yosys-smt2-anyinit fifo#1 4 fifo.sv:30.5-43.8
; yosys-smt2-witness {"offset": 0, "path": ["\\_witness_", "\\anyinit_procdff_217"], "smtname": 1, "smtoffset": 0, "type": "init", "width": 4}
(declare-fun |fifo#1| (|fifo_s|) (_ BitVec 4)) ; \_witness_.anyinit_procdff_217
; yosys-smt2-register _witness_.anyinit_procdff_217 4
; yosys-smt2-wire _witness_.anyinit_procdff_217 4
(define-fun |fifo_n _witness_.anyinit_procdff_217| ((state |fifo_s|)) (_ BitVec 4) (|fifo#1| state))
; yosys-smt2-anyinit fifo#2 4 fifo.sv:30.5-43.8
; yosys-smt2-witness {"offset": 0, "path": ["\\_witness_", "\\anyinit_procdff_212"], "smtname": 2, "smtoffset": 0, "type": "init", "width": 4}
(declare-fun |fifo#2| (|fifo_s|) (_ BitVec 4)) ; \_witness_.anyinit_procdff_212
; yosys-smt2-register _witness_.anyinit_procdff_212 4
; yosys-smt2-wire _witness_.anyinit_procdff_212 4
(define-fun |fifo_n _witness_.anyinit_procdff_212| ((state |fifo_s|)) (_ BitVec 4) (|fifo#2| state))
(declare-fun |fifo#3| (|fifo_s|) Bool) ; \clk
; yosys-smt2-input clk 1
; yosys-smt2-wire clk 1
; yosys-smt2-clock clk posedge
; yosys-smt2-witness {"offset": 0, "path": ["\\clk"], "smtname": "clk", "smtoffset": 0, "type": "posedge", "width": 1}
; yosys-smt2-witness {"offset": 0, "path": ["\\clk"], "smtname": "clk", "smtoffset": 0, "type": "input", "width": 1}
(define-fun |fifo_n clk| ((state |fifo_s|)) Bool (|fifo#3| state))
(declare-fun |fifo#4| (|fifo_s|) (_ BitVec 1)) ; \reset_n
(define-fun |fifo#5| ((state |fifo_s|)) (_ BitVec 4) (ite (= ((_ extract 0 0) (|fifo#4| state)) #b1) (|fifo#2| state) #b0000)) ; \wr_ptr
(define-fun |fifo#6| ((state |fifo_s|)) (_ BitVec 4) (ite (= ((_ extract 0 0) (|fifo#4| state)) #b1) (|fifo#1| state) #b0000)) ; \rd_ptr
(define-fun |fifo#7| ((state |fifo_s|)) Bool (= (|fifo#5| state) (|fifo#6| state))) ; \empty
; yosys-smt2-output empty 1
; yosys-smt2-wire empty 1
(define-fun |fifo_n empty| ((state |fifo_s|)) Bool (|fifo#7| state))
(define-fun |fifo#8| ((state |fifo_s|)) Bool (distinct ((_ extract 3 3) (|fifo#5| state)) ((_ extract 3 3) (|fifo#6| state)))) ; $ne$fifo.sv:24$69_Y
(define-fun |fifo#9| ((state |fifo_s|)) Bool (= ((_ extract 2 0) (|fifo#5| state)) ((_ extract 2 0) (|fifo#6| state)))) ; $eq$fifo.sv:25$70_Y
(define-fun |fifo#10| ((state |fifo_s|)) Bool (and (or  (|fifo#8| state) false) (or  (|fifo#9| state) false))) ; \full
; yosys-smt2-output full 1
; yosys-smt2-wire full 1
(define-fun |fifo_n full| ((state |fifo_s|)) Bool (|fifo#10| state))
; yosys-smt2-anyinit fifo#11 8 fifo.sv:30.5-43.8
; yosys-smt2-witness {"offset": 0, "path": ["\\mem[0]"], "smtname": 11, "smtoffset": 0, "type": "init", "width": 8}
(declare-fun |fifo#11| (|fifo_s|) (_ BitVec 8)) ; \mem[0]
; yosys-smt2-register mem[0] 8
; yosys-smt2-wire mem[0] 8
(define-fun |fifo_n mem[0]| ((state |fifo_s|)) (_ BitVec 8) (|fifo#11| state))
; yosys-smt2-anyinit fifo#12 8 fifo.sv:30.5-43.8
; yosys-smt2-witness {"offset": 0, "path": ["\\mem[1]"], "smtname": 12, "smtoffset": 0, "type": "init", "width": 8}
(declare-fun |fifo#12| (|fifo_s|) (_ BitVec 8)) ; \mem[1]
; yosys-smt2-register mem[1] 8
; yosys-smt2-wire mem[1] 8
(define-fun |fifo_n mem[1]| ((state |fifo_s|)) (_ BitVec 8) (|fifo#12| state))
; yosys-smt2-anyinit fifo#13 8 fifo.sv:30.5-43.8
; yosys-smt2-witness {"offset": 0, "path": ["\\mem[2]"], "smtname": 13, "smtoffset": 0, "type": "init", "width": 8}
(declare-fun |fifo#13| (|fifo_s|) (_ BitVec 8)) ; \mem[2]
; yosys-smt2-register mem[2] 8
; yosys-smt2-wire mem[2] 8
(define-fun |fifo_n mem[2]| ((state |fifo_s|)) (_ BitVec 8) (|fifo#13| state))
; yosys-smt2-anyinit fifo#14 8 fifo.sv:30.5-43.8
; yosys-smt2-witness {"offset": 0, "path": ["\\mem[3]"], "smtname": 14, "smtoffset": 0, "type": "init", "width": 8}
(declare-fun |fifo#14| (|fifo_s|) (_ BitVec 8)) ; \mem[3]
; yosys-smt2-register mem[3] 8
; yosys-smt2-wire mem[3] 8
(define-fun |fifo_n mem[3]| ((state |fifo_s|)) (_ BitVec 8) (|fifo#14| state))
; yosys-smt2-anyinit fifo#15 8 fifo.sv:30.5-43.8
; yosys-smt2-witness {"offset": 0, "path": ["\\mem[4]"], "smtname": 15, "smtoffset": 0, "type": "init", "width": 8}
(declare-fun |fifo#15| (|fifo_s|) (_ BitVec 8)) ; \mem[4]
; yosys-smt2-register mem[4] 8
; yosys-smt2-wire mem[4] 8
(define-fun |fifo_n mem[4]| ((state |fifo_s|)) (_ BitVec 8) (|fifo#15| state))
; yosys-smt2-anyinit fifo#16 8 fifo.sv:30.5-43.8
; yosys-smt2-witness {"offset": 0, "path": ["\\mem[5]"], "smtname": 16, "smtoffset": 0, "type": "init", "width": 8}
(declare-fun |fifo#16| (|fifo_s|) (_ BitVec 8)) ; \mem[5]
; yosys-smt2-register mem[5] 8
; yosys-smt2-wire mem[5] 8
(define-fun |fifo_n mem[5]| ((state |fifo_s|)) (_ BitVec 8) (|fifo#16| state))
; yosys-smt2-anyinit fifo#17 8 fifo.sv:30.5-43.8
; yosys-smt2-witness {"offset": 0, "path": ["\\mem[6]"], "smtname": 17, "smtoffset": 0, "type": "init", "width": 8}
(declare-fun |fifo#17| (|fifo_s|) (_ BitVec 8)) ; \mem[6]
; yosys-smt2-register mem[6] 8
; yosys-smt2-wire mem[6] 8
(define-fun |fifo_n mem[6]| ((state |fifo_s|)) (_ BitVec 8) (|fifo#17| state))
; yosys-smt2-anyinit fifo#18 8 fifo.sv:30.5-43.8
; yosys-smt2-witness {"offset": 0, "path": ["\\mem[7]"], "smtname": 18, "smtoffset": 0, "type": "init", "width": 8}
(declare-fun |fifo#18| (|fifo_s|) (_ BitVec 8)) ; \mem[7]
; yosys-smt2-register mem[7] 8
; yosys-smt2-wire mem[7] 8
(define-fun |fifo_n mem[7]| ((state |fifo_s|)) (_ BitVec 8) (|fifo#18| state))
(define-fun |fifo#19| ((state |fifo_s|)) Bool (= ((_ extract 2 0) (|fifo#6| state)) #b111)) ; $procmux$91_CMP
(define-fun |fifo#20| ((state |fifo_s|)) Bool (= ((_ extract 2 0) (|fifo#6| state)) #b110)) ; $procmux$92_CMP
(define-fun |fifo#21| ((state |fifo_s|)) Bool (= ((_ extract 2 0) (|fifo#6| state)) #b101)) ; $procmux$93_CMP
(define-fun |fifo#22| ((state |fifo_s|)) Bool (= ((_ extract 2 0) (|fifo#6| state)) #b100)) ; $procmux$94_CMP
(define-fun |fifo#23| ((state |fifo_s|)) Bool (= ((_ extract 2 0) (|fifo#6| state)) #b011)) ; $procmux$95_CMP
(define-fun |fifo#24| ((state |fifo_s|)) Bool (= ((_ extract 2 0) (|fifo#6| state)) #b010)) ; $procmux$96_CMP
(define-fun |fifo#25| ((state |fifo_s|)) Bool (= ((_ extract 2 0) (|fifo#6| state)) #b001)) ; $procmux$97_CMP
(define-fun |fifo#26| ((state |fifo_s|)) Bool (not (or  (= ((_ extract 0 0) (|fifo#6| state)) #b1) (= ((_ extract 1 1) (|fifo#6| state)) #b1) (= ((_ extract 2 2) (|fifo#6| state)) #b1)))) ; $procmux$98_CMP
(define-fun |fifo#27| ((state |fifo_s|)) (_ BitVec 8) (ite (|fifo#26| state) (|fifo#11| state) (ite (|fifo#25| state) (|fifo#12| state) (ite (|fifo#24| state) (|fifo#13| state) (ite (|fifo#23| state) (|fifo#14| state) (ite (|fifo#22| state) (|fifo#15| state) (ite (|fifo#21| state) (|fifo#16| state) (ite (|fifo#20| state) (|fifo#17| state) (ite (|fifo#19| state) (|fifo#18| state) (|fifo#0| state)))))))))) ; \rd_data
; yosys-smt2-output rd_data 8
; yosys-smt2-wire rd_data 8
(define-fun |fifo_n rd_data| ((state |fifo_s|)) (_ BitVec 8) (|fifo#27| state))
(declare-fun |fifo#28| (|fifo_s|) Bool) ; \rd_en
; yosys-smt2-input rd_en 1
; yosys-smt2-wire rd_en 1
; yosys-smt2-witness {"offset": 0, "path": ["\\rd_en"], "smtname": "rd_en", "smtoffset": 0, "type": "input", "width": 1}
(define-fun |fifo_n rd_en| ((state |fifo_s|)) Bool (|fifo#28| state))
; yosys-smt2-wire rd_ptr 4
(define-fun |fifo_n rd_ptr| ((state |fifo_s|)) (_ BitVec 4) (|fifo#6| state))
; yosys-smt2-input reset_n 1
; yosys-smt2-wire reset_n 1
; yosys-smt2-witness {"offset": 0, "path": ["\\reset_n"], "smtname": "reset_n", "smtoffset": 0, "type": "input", "width": 1}
(define-fun |fifo_n reset_n| ((state |fifo_s|)) Bool (= ((_ extract 0 0) (|fifo#4| state)) #b1))
(declare-fun |fifo#29| (|fifo_s|) (_ BitVec 8)) ; \wr_data
; yosys-smt2-input wr_data 8
; yosys-smt2-wire wr_data 8
; yosys-smt2-witness {"offset": 0, "path": ["\\wr_data"], "smtname": "wr_data", "smtoffset": 0, "type": "input", "width": 8}
(define-fun |fifo_n wr_data| ((state |fifo_s|)) (_ BitVec 8) (|fifo#29| state))
(declare-fun |fifo#30| (|fifo_s|) Bool) ; \wr_en
; yosys-smt2-input wr_en 1
; yosys-smt2-wire wr_en 1
; yosys-smt2-witness {"offset": 0, "path": ["\\wr_en"], "smtname": "wr_en", "smtoffset": 0, "type": "input", "width": 1}
(define-fun |fifo_n wr_en| ((state |fifo_s|)) Bool (|fifo#30| state))
; yosys-smt2-wire wr_ptr 4
(define-fun |fifo_n wr_ptr| ((state |fifo_s|)) (_ BitVec 4) (|fifo#5| state))
(define-fun |fifo#31| ((state |fifo_s|)) (_ BitVec 1) (bvnot (ite (|fifo#3| state) #b1 #b0))) ; $auto$rtlil.cc:3255:Not$315
; yosys-smt2-assume 0 $auto$formalff.cc:987:execute$316
(define-fun |fifo_u 0| ((state |fifo_s|)) Bool (or (= ((_ extract 0 0) (|fifo#31| state)) #b1) (not true))) ; $auto$formalff.cc:987:execute$316
(define-fun |fifo#32| ((state |fifo_s|)) Bool (= ((_ extract 2 0) (|fifo#5| state)) #b111)) ; $procmux$107_CMP
(define-fun |fifo#33| ((state |fifo_s|)) (_ BitVec 8) (ite (|fifo#32| state) (|fifo#29| state) (|fifo#18| state))) ; $procmux$106_Y
(define-fun |fifo#34| ((state |fifo_s|)) Bool (not (or  (|fifo#10| state) false))) ; $logic_not$fifo.sv:35$79_Y
(define-fun |fifo#35| ((state |fifo_s|)) Bool (and (or  (|fifo#30| state) false) (or  (|fifo#34| state) false))) ; $logic_and$fifo.sv:35$80_Y
(define-fun |fifo#36| ((state |fifo_s|)) (_ BitVec 8) (ite (|fifo#35| state) (|fifo#33| state) (|fifo#18| state))) ; $0\mem[7][7:0]
(define-fun |fifo#37| ((state |fifo_s|)) (_ BitVec 8) (ite (= ((_ extract 0 0) (|fifo#4| state)) #b1) (|fifo#36| state) (|fifo#18| state))) ; $auto$rtlil.cc:3390:Mux$272
(define-fun |fifo#38| ((state |fifo_s|)) Bool (= ((_ extract 2 0) (|fifo#5| state)) #b110)) ; $procmux$113_CMP
(define-fun |fifo#39| ((state |fifo_s|)) (_ BitVec 8) (ite (|fifo#38| state) (|fifo#29| state) (|fifo#17| state))) ; $procmux$112_Y
(define-fun |fifo#40| ((state |fifo_s|)) (_ BitVec 8) (ite (|fifo#35| state) (|fifo#39| state) (|fifo#17| state))) ; $0\mem[6][7:0]
(define-fun |fifo#41| ((state |fifo_s|)) (_ BitVec 8) (ite (= ((_ extract 0 0) (|fifo#4| state)) #b1) (|fifo#40| state) (|fifo#17| state))) ; $auto$rtlil.cc:3390:Mux$265
(define-fun |fifo#42| ((state |fifo_s|)) Bool (= ((_ extract 2 0) (|fifo#5| state)) #b101)) ; $procmux$120_CMP
(define-fun |fifo#43| ((state |fifo_s|)) (_ BitVec 8) (ite (|fifo#42| state) (|fifo#29| state) (|fifo#16| state))) ; $procmux$119_Y
(define-fun |fifo#44| ((state |fifo_s|)) (_ BitVec 8) (ite (|fifo#35| state) (|fifo#43| state) (|fifo#16| state))) ; $0\mem[5][7:0]
(define-fun |fifo#45| ((state |fifo_s|)) (_ BitVec 8) (ite (= ((_ extract 0 0) (|fifo#4| state)) #b1) (|fifo#44| state) (|fifo#16| state))) ; $auto$rtlil.cc:3390:Mux$258
(define-fun |fifo#46| ((state |fifo_s|)) Bool (= ((_ extract 2 0) (|fifo#5| state)) #b100)) ; $procmux$128_CMP
(define-fun |fifo#47| ((state |fifo_s|)) (_ BitVec 8) (ite (|fifo#46| state) (|fifo#29| state) (|fifo#15| state))) ; $procmux$127_Y
(define-fun |fifo#48| ((state |fifo_s|)) (_ BitVec 8) (ite (|fifo#35| state) (|fifo#47| state) (|fifo#15| state))) ; $0\mem[4][7:0]
(define-fun |fifo#49| ((state |fifo_s|)) (_ BitVec 8) (ite (= ((_ extract 0 0) (|fifo#4| state)) #b1) (|fifo#48| state) (|fifo#15| state))) ; $auto$rtlil.cc:3390:Mux$251
(define-fun |fifo#50| ((state |fifo_s|)) Bool (= ((_ extract 2 0) (|fifo#5| state)) #b011)) ; $procmux$137_CMP
(define-fun |fifo#51| ((state |fifo_s|)) (_ BitVec 8) (ite (|fifo#50| state) (|fifo#29| state) (|fifo#14| state))) ; $procmux$136_Y
(define-fun |fifo#52| ((state |fifo_s|)) (_ BitVec 8) (ite (|fifo#35| state) (|fifo#51| state) (|fifo#14| state))) ; $0\mem[3][7:0]
(define-fun |fifo#53| ((state |fifo_s|)) (_ BitVec 8) (ite (= ((_ extract 0 0) (|fifo#4| state)) #b1) (|fifo#52| state) (|fifo#14| state))) ; $auto$rtlil.cc:3390:Mux$244
(define-fun |fifo#54| ((state |fifo_s|)) Bool (= ((_ extract 2 0) (|fifo#5| state)) #b010)) ; $procmux$147_CMP
(define-fun |fifo#55| ((state |fifo_s|)) (_ BitVec 8) (ite (|fifo#54| state) (|fifo#29| state) (|fifo#13| state))) ; $procmux$146_Y
(define-fun |fifo#56| ((state |fifo_s|)) (_ BitVec 8) (ite (|fifo#35| state) (|fifo#55| state) (|fifo#13| state))) ; $0\mem[2][7:0]
(define-fun |fifo#57| ((state |fifo_s|)) (_ BitVec 8) (ite (= ((_ extract 0 0) (|fifo#4| state)) #b1) (|fifo#56| state) (|fifo#13| state))) ; $auto$rtlil.cc:3390:Mux$237
(define-fun |fifo#58| ((state |fifo_s|)) Bool (= ((_ extract 2 0) (|fifo#5| state)) #b001)) ; $procmux$158_CMP
(define-fun |fifo#59| ((state |fifo_s|)) (_ BitVec 8) (ite (|fifo#58| state) (|fifo#29| state) (|fifo#12| state))) ; $procmux$157_Y
(define-fun |fifo#60| ((state |fifo_s|)) (_ BitVec 8) (ite (|fifo#35| state) (|fifo#59| state) (|fifo#12| state))) ; $0\mem[1][7:0]
(define-fun |fifo#61| ((state |fifo_s|)) (_ BitVec 8) (ite (= ((_ extract 0 0) (|fifo#4| state)) #b1) (|fifo#60| state) (|fifo#12| state))) ; $auto$rtlil.cc:3390:Mux$230
(define-fun |fifo#62| ((state |fifo_s|)) Bool (not (or  (= ((_ extract 0 0) (|fifo#5| state)) #b1) (= ((_ extract 1 1) (|fifo#5| state)) #b1) (= ((_ extract 2 2) (|fifo#5| state)) #b1)))) ; $procmux$170_CMP
(define-fun |fifo#63| ((state |fifo_s|)) (_ BitVec 8) (ite (|fifo#62| state) (|fifo#29| state) (|fifo#11| state))) ; $procmux$169_Y
(define-fun |fifo#64| ((state |fifo_s|)) (_ BitVec 8) (ite (|fifo#35| state) (|fifo#63| state) (|fifo#11| state))) ; $0\mem[0][7:0]
(define-fun |fifo#65| ((state |fifo_s|)) (_ BitVec 8) (ite (= ((_ extract 0 0) (|fifo#4| state)) #b1) (|fifo#64| state) (|fifo#11| state))) ; $auto$rtlil.cc:3390:Mux$223
(define-fun |fifo#66| ((state |fifo_s|)) (_ BitVec 4) (bvadd (|fifo#5| state) #b0001)) ; $add$fifo.sv:37$83_Y
(define-fun |fifo#67| ((state |fifo_s|)) (_ BitVec 4) (ite (|fifo#35| state) (|fifo#66| state) (|fifo#5| state))) ; $0\wr_ptr[3:0]
(define-fun |fifo#68| ((state |fifo_s|)) (_ BitVec 4) (ite (= ((_ extract 0 0) (|fifo#4| state)) #b1) (|fifo#67| state) #b0000)) ; $auto$rtlil.cc:3390:Mux$305
(define-fun |fifo#69| ((state |fifo_s|)) (_ BitVec 4) (bvadd (|fifo#6| state) #b0001)) ; $add$fifo.sv:40$86_Y
(define-fun |fifo#70| ((state |fifo_s|)) Bool (not (or  (|fifo#7| state) false))) ; $logic_not$fifo.sv:39$84_Y
(define-fun |fifo#71| ((state |fifo_s|)) Bool (and (or  (|fifo#28| state) false) (or  (|fifo#70| state) false))) ; $logic_and$fifo.sv:39$85_Y
(define-fun |fifo#72| ((state |fifo_s|)) (_ BitVec 4) (ite (|fifo#71| state) (|fifo#69| state) (|fifo#6| state))) ; $0\rd_ptr[3:0]
(define-fun |fifo#73| ((state |fifo_s|)) (_ BitVec 4) (ite (= ((_ extract 0 0) (|fifo#4| state)) #b1) (|fifo#72| state) #b0000)) ; $auto$rtlil.cc:3390:Mux$303
(define-fun |fifo_a| ((state |fifo_s|)) Bool true)
(define-fun |fifo_u| ((state |fifo_s|)) Bool 
  (|fifo_u 0| state)
)
(define-fun |fifo_i| ((state |fifo_s|)) Bool true)
(define-fun |fifo_h| ((state |fifo_s|)) Bool true)
(define-fun |fifo_t| ((state |fifo_s|) (next_state |fifo_s|)) Bool (and
  (= (|fifo#37| state) (|fifo#18| next_state)) ; $procdff$273 \mem[7]
  (= (|fifo#41| state) (|fifo#17| next_state)) ; $procdff$266 \mem[6]
  (= (|fifo#45| state) (|fifo#16| next_state)) ; $procdff$259 \mem[5]
  (= (|fifo#49| state) (|fifo#15| next_state)) ; $procdff$252 \mem[4]
  (= (|fifo#53| state) (|fifo#14| next_state)) ; $procdff$245 \mem[3]
  (= (|fifo#57| state) (|fifo#13| next_state)) ; $procdff$238 \mem[2]
  (= (|fifo#61| state) (|fifo#12| next_state)) ; $procdff$231 \mem[1]
  (= (|fifo#65| state) (|fifo#11| next_state)) ; $procdff$224 \mem[0]
  (= (|fifo#68| state) (|fifo#2| next_state)) ; $procdff$212 \_witness_.anyinit_procdff_212
  (= (|fifo#73| state) (|fifo#1| next_state)) ; $procdff$217 \_witness_.anyinit_procdff_217
)) ; end of module fifo
; yosys-smt2-module formal_wrapper
(declare-sort |formal_wrapper_s| 0)
(declare-fun |formal_wrapper_is| (|formal_wrapper_s|) Bool)
; yosys-smt2-witness {"offset": 0, "path": ["\\_va_past_valid"], "smtname": 0, "smtoffset": 0, "type": "reg", "width": 1}
(declare-fun |formal_wrapper#0| (|formal_wrapper_s|) (_ BitVec 1)) ; \_va_past_valid
; yosys-smt2-register _va_past_valid 1
; yosys-smt2-wire _va_past_valid 1
(define-fun |formal_wrapper_n _va_past_valid| ((state |formal_wrapper_s|)) Bool (= ((_ extract 0 0) (|formal_wrapper#0| state)) #b1))
(declare-fun |formal_wrapper#1| (|formal_wrapper_s|) Bool) ; \clk
; yosys-smt2-input clk 1
; yosys-smt2-wire clk 1
; yosys-smt2-clock clk posedge
; yosys-smt2-witness {"offset": 0, "path": ["\\clk"], "smtname": "clk", "smtoffset": 0, "type": "posedge", "width": 1}
; yosys-smt2-witness {"offset": 0, "path": ["\\clk"], "smtname": "clk", "smtoffset": 0, "type": "input", "width": 1}
(define-fun |formal_wrapper_n clk| ((state |formal_wrapper_s|)) Bool (|formal_wrapper#1| state))
; yosys-smt2-cell fifo u_dut
; yosys-smt2-witness {"path": ["\\u_dut"], "smtname": "u_dut", "type": "cell"}
(declare-fun |formal_wrapper#2| (|formal_wrapper_s|) Bool) ; \empty
(declare-fun |formal_wrapper#3| (|formal_wrapper_s|) Bool) ; \full
(declare-fun |formal_wrapper#4| (|formal_wrapper_s|) (_ BitVec 8)) ; \rd_data
(declare-fun |formal_wrapper_h u_dut| (|formal_wrapper_s|) |fifo_s|)
; yosys-smt2-wire empty 1
(define-fun |formal_wrapper_n empty| ((state |formal_wrapper_s|)) Bool (|formal_wrapper#2| state))
; yosys-smt2-wire full 1
(define-fun |formal_wrapper_n full| ((state |formal_wrapper_s|)) Bool (|formal_wrapper#3| state))
; yosys-smt2-wire rd_data 8
(define-fun |formal_wrapper_n rd_data| ((state |formal_wrapper_s|)) (_ BitVec 8) (|formal_wrapper#4| state))
; yosys-smt2-anyseq formal_wrapper#5 1 formal_wrapper.sv:10.23-10.28 rd_en
; yosys-smt2-witness {"offset": 0, "path": ["\\rd_en"], "smtname": 5, "smtoffset": 0, "type": "seq", "width": 1}
(declare-fun |formal_wrapper#5| (|formal_wrapper_s|) (_ BitVec 1)) ; \rd_en
; yosys-smt2-wire rd_en 1
(define-fun |formal_wrapper_n rd_en| ((state |formal_wrapper_s|)) Bool (= ((_ extract 0 0) (|formal_wrapper#5| state)) #b1))
(declare-fun |formal_wrapper#6| (|formal_wrapper_s|) Bool) ; \rst_n
; yosys-smt2-wire reset_n 1
(define-fun |formal_wrapper_n reset_n| ((state |formal_wrapper_s|)) Bool (|formal_wrapper#6| state))
; yosys-smt2-input rst_n 1
; yosys-smt2-wire rst_n 1
; yosys-smt2-witness {"offset": 0, "path": ["\\rst_n"], "smtname": "rst_n", "smtoffset": 0, "type": "input", "width": 1}
(define-fun |formal_wrapper_n rst_n| ((state |formal_wrapper_s|)) Bool (|formal_wrapper#6| state))
; yosys-smt2-anyseq formal_wrapper#7 8 formal_wrapper.sv:11.29-11.36 wr_data
; yosys-smt2-witness {"offset": 0, "path": ["\\wr_data"], "smtname": 7, "smtoffset": 0, "type": "seq", "width": 8}
(declare-fun |formal_wrapper#7| (|formal_wrapper_s|) (_ BitVec 8)) ; \wr_data
; yosys-smt2-wire wr_data 8
(define-fun |formal_wrapper_n wr_data| ((state |formal_wrapper_s|)) (_ BitVec 8) (|formal_wrapper#7| state))
; yosys-smt2-anyseq formal_wrapper#8 1 formal_wrapper.sv:9.23-9.28 wr_en
; yosys-smt2-witness {"offset": 0, "path": ["\\wr_en"], "smtname": 8, "smtoffset": 0, "type": "seq", "width": 1}
(declare-fun |formal_wrapper#8| (|formal_wrapper_s|) (_ BitVec 1)) ; \wr_en
; yosys-smt2-wire wr_en 1
(define-fun |formal_wrapper_n wr_en| ((state |formal_wrapper_s|)) Bool (= ((_ extract 0 0) (|formal_wrapper#8| state)) #b1))
(define-fun |formal_wrapper#9| ((state |formal_wrapper_s|)) (_ BitVec 1) (bvnot (ite (|formal_wrapper#1| state) #b1 #b0))) ; $auto$rtlil.cc:3255:Not$321
; yosys-smt2-assume 0 $auto$formalff.cc:987:execute$322
(define-fun |formal_wrapper_u 0| ((state |formal_wrapper_s|)) Bool (or (= ((_ extract 0 0) (|formal_wrapper#9| state)) #b1) (not true))) ; $auto$formalff.cc:987:execute$322
(define-fun |formal_wrapper#10| ((state |formal_wrapper_s|)) Bool (not (or  (|formal_wrapper#6| state) false))) ; $logic_not$formal_wrapper.sv:45$9_Y
(define-fun |formal_wrapper#11| ((state |formal_wrapper_s|)) (_ BitVec 1) (ite (= ((_ extract 0 0) (|formal_wrapper#0| state)) #b1) #b0 #b1)) ; $assume$formal_wrapper.sv:45$8_EN
; yosys-smt2-assume 1 _witness_.check_assume_formal_wrapper_sv_45_8 formal_wrapper.sv:45.13-45.29
(define-fun |formal_wrapper_u 1| ((state |formal_wrapper_s|)) Bool (or (|formal_wrapper#10| state) (not (= ((_ extract 0 0) (|formal_wrapper#11| state)) #b1)))) ; _witness_.check_assume_formal_wrapper_sv_45_8
; yosys-smt2-cell fifo_sva u_monitor
; yosys-smt2-witness {"path": ["\\u_monitor"], "smtname": "u_monitor", "type": "cell"}
(declare-fun |formal_wrapper_h u_monitor| (|formal_wrapper_s|) |fifo_sva_s|)
(define-fun |formal_wrapper_a| ((state |formal_wrapper_s|)) Bool (and
  (|fifo_sva_a| (|formal_wrapper_h u_monitor| state))
  (|fifo_a| (|formal_wrapper_h u_dut| state))
))
(define-fun |formal_wrapper_u| ((state |formal_wrapper_s|)) Bool (and
  (|formal_wrapper_u 0| state)
  (|formal_wrapper_u 1| state)
  (|fifo_sva_u| (|formal_wrapper_h u_monitor| state))
  (|fifo_u| (|formal_wrapper_h u_dut| state))
))
(define-fun |formal_wrapper_i| ((state |formal_wrapper_s|)) Bool (and
  (= (= ((_ extract 0 0) (|formal_wrapper#0| state)) #b1) false) ; _va_past_valid
  (|fifo_sva_i| (|formal_wrapper_h u_monitor| state))
  (|fifo_i| (|formal_wrapper_h u_dut| state))
))
(define-fun |formal_wrapper_h| ((state |formal_wrapper_s|)) Bool (and
  (= (|formal_wrapper_is| state) (|fifo_sva_is| (|formal_wrapper_h u_monitor| state)))
  (= (|formal_wrapper#1| state) (|fifo_sva_n clk| (|formal_wrapper_h u_monitor| state))) ; fifo_sva.clk
  (= (|formal_wrapper#2| state) (|fifo_sva_n empty| (|formal_wrapper_h u_monitor| state))) ; fifo_sva.empty
  (= (|formal_wrapper#3| state) (|fifo_sva_n full| (|formal_wrapper_h u_monitor| state))) ; fifo_sva.full
  (= (= ((_ extract 0 0) (|formal_wrapper#5| state)) #b1) (|fifo_sva_n rd_en| (|formal_wrapper_h u_monitor| state))) ; fifo_sva.rd_en
  (= (|formal_wrapper#6| state) (|fifo_sva_n reset_n| (|formal_wrapper_h u_monitor| state))) ; fifo_sva.reset_n
  (= (= ((_ extract 0 0) (|formal_wrapper#8| state)) #b1) (|fifo_sva_n wr_en| (|formal_wrapper_h u_monitor| state))) ; fifo_sva.wr_en
  (= (|formal_wrapper_is| state) (|fifo_is| (|formal_wrapper_h u_dut| state)))
  (= (|formal_wrapper#1| state) (|fifo_n clk| (|formal_wrapper_h u_dut| state))) ; fifo.clk
  (= (|formal_wrapper#2| state) (|fifo_n empty| (|formal_wrapper_h u_dut| state))) ; fifo.empty
  (= (|formal_wrapper#3| state) (|fifo_n full| (|formal_wrapper_h u_dut| state))) ; fifo.full
  (= (|formal_wrapper#4| state) (|fifo_n rd_data| (|formal_wrapper_h u_dut| state))) ; fifo.rd_data
  (= (= ((_ extract 0 0) (|formal_wrapper#5| state)) #b1) (|fifo_n rd_en| (|formal_wrapper_h u_dut| state))) ; fifo.rd_en
  (= (|formal_wrapper#6| state) (|fifo_n reset_n| (|formal_wrapper_h u_dut| state))) ; fifo.reset_n
  (= (|formal_wrapper#7| state) (|fifo_n wr_data| (|formal_wrapper_h u_dut| state))) ; fifo.wr_data
  (= (= ((_ extract 0 0) (|formal_wrapper#8| state)) #b1) (|fifo_n wr_en| (|formal_wrapper_h u_dut| state))) ; fifo.wr_en
  (|fifo_sva_h| (|formal_wrapper_h u_monitor| state))
  (|fifo_h| (|formal_wrapper_h u_dut| state))
))
(define-fun |formal_wrapper_t| ((state |formal_wrapper_s|) (next_state |formal_wrapper_s|)) Bool (and
  (= #b1 (|formal_wrapper#0| next_state)) ; $procdff$281 \_va_past_valid
  (|fifo_sva_t| (|formal_wrapper_h u_monitor| state) (|formal_wrapper_h u_monitor| next_state))
  (|fifo_t| (|formal_wrapper_h u_dut| state) (|formal_wrapper_h u_dut| next_state))
)) ; end of module formal_wrapper
; yosys-smt2-topmod formal_wrapper
; end of yosys output
